&control
prefix = 'titania'
calculation = 'scf'
restart_mode = 'from_scratch'
wf_collect = .false.
disk_io = 'none'
tstress = .false.
tprnfor = .false.
outdir = './'
wfcdir = './'
pseudo_dir = './'
/
&system
ibrav = 0
celldm(1) = 8.7671
nat = 480
ntyp = 2
nbnd = 1920
ecutwfc = 80
/
&electrons
startingwfc='atomic'
electron_maxstep = 1
conv_thr = 1.0d5
mixing_mode = 'plain'
mixing_beta = 0.7
mixing_ndim = 8
diagonalization = 'david'
diago_david_ndim = 4
diago_full_acc = .true.
/
CELL_PARAMETERS
5.0 0.0 0.0
0.0 4.0 0.0
0.0 0.0 2.554352
ATOMIC_SPECIES
Ti 47.867 Ti.pbe.nml
O 15.9994 O.pbe.nml
ATOMIC_POSITIONS crystal
Ti 0.0 0.0 0.0
Ti 0.1 0.125 0.125
O 0.06101754 0.076271925 0.0
O -0.06101754 -0.076271925 0.0
O 0.16101754 0.048728075 0.125
O 0.03898246 0.201271925 0.125
Ti 0.0 0.0 0.25
Ti 0.1 0.125 0.375
O 0.06101754 0.076271925 0.25
O -0.06101754 -0.076271925 0.25
O 0.16101754 0.048728075 0.375
O 0.03898246 0.201271925 0.375
Ti 0.0 0.0 0.5
Ti 0.1 0.125 0.625
O 0.06101754 0.076271925 0.5
O -0.06101754 -0.076271925 0.5
O 0.16101754 0.048728075 0.625
O 0.03898246 0.201271925 0.625
Ti 0.0 0.0 0.75
Ti 0.1 0.125 0.875
O 0.06101754 0.076271925 0.75
O -0.06101754 -0.076271925 0.75
O 0.16101754 0.048728075 0.875
O 0.03898246 0.201271925 0.875
Ti 0.0 0.25 0.0
Ti 0.1 0.375 0.125
O 0.06101754 0.326271925 0.0
O -0.06101754 0.173728075 0.0
O 0.16101754 0.298728075 0.125
O 0.03898246 0.451271925 0.125
Ti 0.0 0.25 0.25
Ti 0.1 0.375 0.375
O 0.06101754 0.326271925 0.25
O -0.06101754 0.173728075 0.25
O 0.16101754 0.298728075 0.375
O 0.03898246 0.451271925 0.375
Ti 0.0 0.25 0.5
Ti 0.1 0.375 0.625
O 0.06101754 0.326271925 0.5
O -0.06101754 0.173728075 0.5
O 0.16101754 0.298728075 0.625
O 0.03898246 0.451271925 0.625
Ti 0.0 0.25 0.75
Ti 0.1 0.375 0.875
O 0.06101754 0.326271925 0.75
O -0.06101754 0.173728075 0.75
O 0.16101754 0.298728075 0.875
O 0.03898246 0.451271925 0.875
Ti 0.0 0.5 0.0
Ti 0.1 0.625 0.125
O 0.06101754 0.576271925 0.0
O -0.06101754 0.423728075 0.0
O 0.16101754 0.548728075 0.125
O 0.03898246 0.701271925 0.125
Ti 0.0 0.5 0.25
Ti 0.1 0.625 0.375
O 0.06101754 0.576271925 0.25
O -0.06101754 0.423728075 0.25
O 0.16101754 0.548728075 0.375
O 0.03898246 0.701271925 0.375
Ti 0.0 0.5 0.5
Ti 0.1 0.625 0.625
O 0.06101754 0.576271925 0.5
O -0.06101754 0.423728075 0.5
O 0.16101754 0.548728075 0.625
O 0.03898246 0.701271925 0.625
Ti 0.0 0.5 0.75
Ti 0.1 0.625 0.875
O 0.06101754 0.576271925 0.75
O -0.06101754 0.423728075 0.75
O 0.16101754 0.548728075 0.875
O 0.03898246 0.701271925 0.875
Ti 0.0 0.75 0.0
Ti 0.1 0.875 0.125
O 0.06101754 0.826271925 0.0
O -0.06101754 0.673728075 0.0
O 0.16101754 0.798728075 0.125
O 0.03898246 0.951271925 0.125
Ti 0.0 0.75 0.25
Ti 0.1 0.875 0.375
O 0.06101754 0.826271925 0.25
O -0.06101754 0.673728075 0.25
O 0.16101754 0.798728075 0.375
O 0.03898246 0.951271925 0.375
Ti 0.0 0.75 0.5
Ti 0.1 0.875 0.625
O 0.06101754 0.826271925 0.5
O -0.06101754 0.673728075 0.5
O 0.16101754 0.798728075 0.625
O 0.03898246 0.951271925 0.625
Ti 0.0 0.75 0.75
Ti 0.1 0.875 0.875
O 0.06101754 0.826271925 0.75
O -0.06101754 0.673728075 0.75
O 0.16101754 0.798728075 0.875
O 0.03898246 0.951271925 0.875
Ti 0.2 0.0 0.0
Ti 0.3 0.125 0.125
O 0.26101754 0.076271925 0.0
O 0.13898246 -0.076271925 0.0
O 0.36101754 0.048728075 0.125
O 0.23898246 0.201271925 0.125
Ti 0.2 0.0 0.25
Ti 0.3 0.125 0.375
O 0.26101754 0.076271925 0.25
O 0.13898246 -0.076271925 0.25
O 0.36101754 0.048728075 0.375
O 0.23898246 0.201271925 0.375
Ti 0.2 0.0 0.5
Ti 0.3 0.125 0.625
O 0.26101754 0.076271925 0.5
O 0.13898246 -0.076271925 0.5
O 0.36101754 0.048728075 0.625
O 0.23898246 0.201271925 0.625
Ti 0.2 0.0 0.75
Ti 0.3 0.125 0.875
O 0.26101754 0.076271925 0.75
O 0.13898246 -0.076271925 0.75
O 0.36101754 0.048728075 0.875
O 0.23898246 0.201271925 0.875
Ti 0.2 0.25 0.0
Ti 0.3 0.375 0.125
O 0.26101754 0.326271925 0.0
O 0.13898246 0.173728075 0.0
O 0.36101754 0.298728075 0.125
O 0.23898246 0.451271925 0.125
Ti 0.2 0.25 0.25
Ti 0.3 0.375 0.375
O 0.26101754 0.326271925 0.25
O 0.13898246 0.173728075 0.25
O 0.36101754 0.298728075 0.375
O 0.23898246 0.451271925 0.375
Ti 0.2 0.25 0.5
Ti 0.3 0.375 0.625
O 0.26101754 0.326271925 0.5
O 0.13898246 0.173728075 0.5
O 0.36101754 0.298728075 0.625
O 0.23898246 0.451271925 0.625
Ti 0.2 0.25 0.75
Ti 0.3 0.375 0.875
O 0.26101754 0.326271925 0.75
O 0.13898246 0.173728075 0.75
O 0.36101754 0.298728075 0.875
O 0.23898246 0.451271925 0.875
Ti 0.2 0.5 0.0
Ti 0.3 0.625 0.125
O 0.26101754 0.576271925 0.0
O 0.13898246 0.423728075 0.0
O 0.36101754 0.548728075 0.125
O 0.23898246 0.701271925 0.125
Ti 0.2 0.5 0.25
Ti 0.3 0.625 0.375
O 0.26101754 0.576271925 0.25
O 0.13898246 0.423728075 0.25
O 0.36101754 0.548728075 0.375
O 0.23898246 0.701271925 0.375
Ti 0.2 0.5 0.5
Ti 0.3 0.625 0.625
O 0.26101754 0.576271925 0.5
O 0.13898246 0.423728075 0.5
O 0.36101754 0.548728075 0.625
O 0.23898246 0.701271925 0.625
Ti 0.2 0.5 0.75
Ti 0.3 0.625 0.875
O 0.26101754 0.576271925 0.75
O 0.13898246 0.423728075 0.75
O 0.36101754 0.548728075 0.875
O 0.23898246 0.701271925 0.875
Ti 0.2 0.75 0.0
Ti 0.3 0.875 0.125
O 0.26101754 0.826271925 0.0
O 0.13898246 0.673728075 0.0
O 0.36101754 0.798728075 0.125
O 0.23898246 0.951271925 0.125
Ti 0.2 0.75 0.25
Ti 0.3 0.875 0.375
O 0.26101754 0.826271925 0.25
O 0.13898246 0.673728075 0.25
O 0.36101754 0.798728075 0.375
O 0.23898246 0.951271925 0.375
Ti 0.2 0.75 0.5
Ti 0.3 0.875 0.625
O 0.26101754 0.826271925 0.5
O 0.13898246 0.673728075 0.5
O 0.36101754 0.798728075 0.625
O 0.23898246 0.951271925 0.625
Ti 0.2 0.75 0.75
Ti 0.3 0.875 0.875
O 0.26101754 0.826271925 0.75
O 0.13898246 0.673728075 0.75
O 0.36101754 0.798728075 0.875
O 0.23898246 0.951271925 0.875
Ti 0.4 0.0 0.0
Ti 0.5 0.125 0.125
O 0.46101754 0.076271925 0.0
O 0.33898246 -0.076271925 0.0
O 0.56101754 0.048728075 0.125
O 0.43898246 0.201271925 0.125
Ti 0.4 0.0 0.25
Ti 0.5 0.125 0.375
O 0.46101754 0.076271925 0.25
O 0.33898246 -0.076271925 0.25
O 0.56101754 0.048728075 0.375
O 0.43898246 0.201271925 0.375
Ti 0.4 0.0 0.5
Ti 0.5 0.125 0.625
O 0.46101754 0.076271925 0.5
O 0.33898246 -0.076271925 0.5
O 0.56101754 0.048728075 0.625
O 0.43898246 0.201271925 0.625
Ti 0.4 0.0 0.75
Ti 0.5 0.125 0.875
O 0.46101754 0.076271925 0.75
O 0.33898246 -0.076271925 0.75
O 0.56101754 0.048728075 0.875
O 0.43898246 0.201271925 0.875
Ti 0.4 0.25 0.0
Ti 0.5 0.375 0.125
O 0.46101754 0.326271925 0.0
O 0.33898246 0.173728075 0.0
O 0.56101754 0.298728075 0.125
O 0.43898246 0.451271925 0.125
Ti 0.4 0.25 0.25
Ti 0.5 0.375 0.375
O 0.46101754 0.326271925 0.25
O 0.33898246 0.173728075 0.25
O 0.56101754 0.298728075 0.375
O 0.43898246 0.451271925 0.375
Ti 0.4 0.25 0.5
Ti 0.5 0.375 0.625
O 0.46101754 0.326271925 0.5
O 0.33898246 0.173728075 0.5
O 0.56101754 0.298728075 0.625
O 0.43898246 0.451271925 0.625
Ti 0.4 0.25 0.75
Ti 0.5 0.375 0.875
O 0.46101754 0.326271925 0.75
O 0.33898246 0.173728075 0.75
O 0.56101754 0.298728075 0.875
O 0.43898246 0.451271925 0.875
Ti 0.4 0.5 0.0
Ti 0.5 0.625 0.125
O 0.46101754 0.576271925 0.0
O 0.33898246 0.423728075 0.0
O 0.56101754 0.548728075 0.125
O 0.43898246 0.701271925 0.125
Ti 0.4 0.5 0.25
Ti 0.5 0.625 0.375
O 0.46101754 0.576271925 0.25
O 0.33898246 0.423728075 0.25
O 0.56101754 0.548728075 0.375
O 0.43898246 0.701271925 0.375
Ti 0.4 0.5 0.5
Ti 0.5 0.625 0.625
O 0.46101754 0.576271925 0.5
O 0.33898246 0.423728075 0.5
O 0.56101754 0.548728075 0.625
O 0.43898246 0.701271925 0.625
Ti 0.4 0.5 0.75
Ti 0.5 0.625 0.875
O 0.46101754 0.576271925 0.75
O 0.33898246 0.423728075 0.75
O 0.56101754 0.548728075 0.875
O 0.43898246 0.701271925 0.875
Ti 0.4 0.75 0.0
Ti 0.5 0.875 0.125
O 0.46101754 0.826271925 0.0
O 0.33898246 0.673728075 0.0
O 0.56101754 0.798728075 0.125
O 0.43898246 0.951271925 0.125
Ti 0.4 0.75 0.25
Ti 0.5 0.875 0.375
O 0.46101754 0.826271925 0.25
O 0.33898246 0.673728075 0.25
O 0.56101754 0.798728075 0.375
O 0.43898246 0.951271925 0.375
Ti 0.4 0.75 0.5
Ti 0.5 0.875 0.625
O 0.46101754 0.826271925 0.5
O 0.33898246 0.673728075 0.5
O 0.56101754 0.798728075 0.625
O 0.43898246 0.951271925 0.625
Ti 0.4 0.75 0.75
Ti 0.5 0.875 0.875
O 0.46101754 0.826271925 0.75
O 0.33898246 0.673728075 0.75
O 0.56101754 0.798728075 0.875
O 0.43898246 0.951271925 0.875
Ti 0.6 0.0 0.0
Ti 0.7 0.125 0.125
O 0.66101754 0.076271925 0.0
O 0.53898246 -0.076271925 0.0
O 0.76101754 0.048728075 0.125
O 0.63898246 0.201271925 0.125
Ti 0.6 0.0 0.25
Ti 0.7 0.125 0.375
O 0.66101754 0.076271925 0.25
O 0.53898246 -0.076271925 0.25
O 0.76101754 0.048728075 0.375
O 0.63898246 0.201271925 0.375
Ti 0.6 0.0 0.5
Ti 0.7 0.125 0.625
O 0.66101754 0.076271925 0.5
O 0.53898246 -0.076271925 0.5
O 0.76101754 0.048728075 0.625
O 0.63898246 0.201271925 0.625
Ti 0.6 0.0 0.75
Ti 0.7 0.125 0.875
O 0.66101754 0.076271925 0.75
O 0.53898246 -0.076271925 0.75
O 0.76101754 0.048728075 0.875
O 0.63898246 0.201271925 0.875
Ti 0.6 0.25 0.0
Ti 0.7 0.375 0.125
O 0.66101754 0.326271925 0.0
O 0.53898246 0.173728075 0.0
O 0.76101754 0.298728075 0.125
O 0.63898246 0.451271925 0.125
Ti 0.6 0.25 0.25
Ti 0.7 0.375 0.375
O 0.66101754 0.326271925 0.25
O 0.53898246 0.173728075 0.25
O 0.76101754 0.298728075 0.375
O 0.63898246 0.451271925 0.375
Ti 0.6 0.25 0.5
Ti 0.7 0.375 0.625
O 0.66101754 0.326271925 0.5
O 0.53898246 0.173728075 0.5
O 0.76101754 0.298728075 0.625
O 0.63898246 0.451271925 0.625
Ti 0.6 0.25 0.75
Ti 0.7 0.375 0.875
O 0.66101754 0.326271925 0.75
O 0.53898246 0.173728075 0.75
O 0.76101754 0.298728075 0.875
O 0.63898246 0.451271925 0.875
Ti 0.6 0.5 0.0
Ti 0.7 0.625 0.125
O 0.66101754 0.576271925 0.0
O 0.53898246 0.423728075 0.0
O 0.76101754 0.548728075 0.125
O 0.63898246 0.701271925 0.125
Ti 0.6 0.5 0.25
Ti 0.7 0.625 0.375
O 0.66101754 0.576271925 0.25
O 0.53898246 0.423728075 0.25
O 0.76101754 0.548728075 0.375
O 0.63898246 0.701271925 0.375
Ti 0.6 0.5 0.5
Ti 0.7 0.625 0.625
O 0.66101754 0.576271925 0.5
O 0.53898246 0.423728075 0.5
O 0.76101754 0.548728075 0.625
O 0.63898246 0.701271925 0.625
Ti 0.6 0.5 0.75
Ti 0.7 0.625 0.875
O 0.66101754 0.576271925 0.75
O 0.53898246 0.423728075 0.75
O 0.76101754 0.548728075 0.875
O 0.63898246 0.701271925 0.875
Ti 0.6 0.75 0.0
Ti 0.7 0.875 0.125
O 0.66101754 0.826271925 0.0
O 0.53898246 0.673728075 0.0
O 0.76101754 0.798728075 0.125
O 0.63898246 0.951271925 0.125
Ti 0.6 0.75 0.25
Ti 0.7 0.875 0.375
O 0.66101754 0.826271925 0.25
O 0.53898246 0.673728075 0.25
O 0.76101754 0.798728075 0.375
O 0.63898246 0.951271925 0.375
Ti 0.6 0.75 0.5
Ti 0.7 0.875 0.625
O 0.66101754 0.826271925 0.5
O 0.53898246 0.673728075 0.5
O 0.76101754 0.798728075 0.625
O 0.63898246 0.951271925 0.625
Ti 0.6 0.75 0.75
Ti 0.7 0.875 0.875
O 0.66101754 0.826271925 0.75
O 0.53898246 0.673728075 0.75
O 0.76101754 0.798728075 0.875
O 0.63898246 0.951271925 0.875
Ti 0.8 0.0 0.0
Ti 0.9 0.125 0.125
O 0.86101754 0.076271925 0.0
O 0.73898246 -0.076271925 0.0
O 0.96101754 0.048728075 0.125
O 0.83898246 0.201271925 0.125
Ti 0.8 0.0 0.25
Ti 0.9 0.125 0.375
O 0.86101754 0.076271925 0.25
O 0.73898246 -0.076271925 0.25
O 0.96101754 0.048728075 0.375
O 0.83898246 0.201271925 0.375
Ti 0.8 0.0 0.5
Ti 0.9 0.125 0.625
O 0.86101754 0.076271925 0.5
O 0.73898246 -0.076271925 0.5
O 0.96101754 0.048728075 0.625
O 0.83898246 0.201271925 0.625
Ti 0.8 0.0 0.75
Ti 0.9 0.125 0.875
O 0.86101754 0.076271925 0.75
O 0.73898246 -0.076271925 0.75
O 0.96101754 0.048728075 0.875
O 0.83898246 0.201271925 0.875
Ti 0.8 0.25 0.0
Ti 0.9 0.375 0.125
O 0.86101754 0.326271925 0.0
O 0.73898246 0.173728075 0.0
O 0.96101754 0.298728075 0.125
O 0.83898246 0.451271925 0.125
Ti 0.8 0.25 0.25
Ti 0.9 0.375 0.375
O 0.86101754 0.326271925 0.25
O 0.73898246 0.173728075 0.25
O 0.96101754 0.298728075 0.375
O 0.83898246 0.451271925 0.375
Ti 0.8 0.25 0.5
Ti 0.9 0.375 0.625
O 0.86101754 0.326271925 0.5
O 0.73898246 0.173728075 0.5
O 0.96101754 0.298728075 0.625
O 0.83898246 0.451271925 0.625
Ti 0.8 0.25 0.75
Ti 0.9 0.375 0.875
O 0.86101754 0.326271925 0.75
O 0.73898246 0.173728075 0.75
O 0.96101754 0.298728075 0.875
O 0.83898246 0.451271925 0.875
Ti 0.8 0.5 0.0
Ti 0.9 0.625 0.125
O 0.86101754 0.576271925 0.0
O 0.73898246 0.423728075 0.0
O 0.96101754 0.548728075 0.125
O 0.83898246 0.701271925 0.125
Ti 0.8 0.5 0.25
Ti 0.9 0.625 0.375
O 0.86101754 0.576271925 0.25
O 0.73898246 0.423728075 0.25
O 0.96101754 0.548728075 0.375
O 0.83898246 0.701271925 0.375
Ti 0.8 0.5 0.5
Ti 0.9 0.625 0.625
O 0.86101754 0.576271925 0.5
O 0.73898246 0.423728075 0.5
O 0.96101754 0.548728075 0.625
O 0.83898246 0.701271925 0.625
Ti 0.8 0.5 0.75
Ti 0.9 0.625 0.875
O 0.86101754 0.576271925 0.75
O 0.73898246 0.423728075 0.75
O 0.96101754 0.548728075 0.875
O 0.83898246 0.701271925 0.875
Ti 0.8 0.75 0.0
Ti 0.9 0.875 0.125
O 0.86101754 0.826271925 0.0
O 0.73898246 0.673728075 0.0
O 0.96101754 0.798728075 0.125
O 0.83898246 0.951271925 0.125
Ti 0.8 0.75 0.25
Ti 0.9 0.875 0.375
O 0.86101754 0.826271925 0.25
O 0.73898246 0.673728075 0.25
O 0.96101754 0.798728075 0.375
O 0.83898246 0.951271925 0.375
Ti 0.8 0.75 0.5
Ti 0.9 0.875 0.625
O 0.86101754 0.826271925 0.5
O 0.73898246 0.673728075 0.5
O 0.96101754 0.798728075 0.625
O 0.83898246 0.951271925 0.625
Ti 0.8 0.75 0.75
Ti 0.9 0.875 0.875
O 0.86101754 0.826271925 0.75
O 0.73898246 0.673728075 0.75
O 0.96101754 0.798728075 0.875
O 0.83898246 0.951271925 0.875
K_POINTS automatic
1 1 1 1 1 1
